(declare-datatypes () ((Nat (Z) (S (p Nat)))))
(declare-datatypes () ((list (nil) (cons (head Nat) (tail list)))))
(declare-fun equal (Nat Nat) Bool)
(declare-fun deleteAll (Nat list) list)
(declare-fun nub (list) list)
(assert (= (equal Z Z) true))
(assert (forall ((z Nat)) (= (equal Z (S z)) false)))
(assert (forall ((x2 Nat)) (= (equal (S x2) Z) false)))
(assert
  (forall ((x2 Nat) (y2 Nat))
    (= (equal (S x2) (S y2)) (equal x2 y2))))
(assert (forall ((x Nat)) (= (deleteAll x nil) nil)))
(assert
  (forall ((x Nat) (z Nat) (xs list))
    (=> (= (equal x z) true)
      (= (deleteAll x (cons z xs)) (deleteAll x xs)))))
(assert
  (forall ((x Nat) (z Nat) (xs list))
    (=> (= (equal x z) false)
      (= (deleteAll x (cons z xs)) (cons z (deleteAll x xs))))))
(assert (= (nub nil) nil))
(assert
  (forall ((y Nat) (xs list))
    (= (nub (cons y xs)) (cons y (deleteAll y (nub xs))))))
(assert-not (forall ((xs list)) (= (nub (nub xs)) (nub xs))))
(check-sat)
